User:   dft22x019@n-62-28-29
Date:   Tue Aug 16 11:59:56 2022
Arch:   x86_64
Pid:    1092
CWD:    /zhome/fa/5/1000203270/CAMD2022/batteries
Python: 3.8.5
gpaw:   /zhome/fa/5/1000203270/CAMD2022/venv/gpaw/gpaw (4191706c58)
_gpaw:  /zhome/fa/5/1000203270/CAMD2022/venv/gpaw/
        _gpaw.cpython-38-x86_64-linux-gnu.so (88bf7688a8)
ase:    /zhome/fa/5/1000203270/CAMD2022/venv/ase/ase (version 3.23.0b1-bcce2b6c57)
numpy:  /zhome/fa/5/1000203270/CAMD2022/venv/lib/python3.8/site-packages/numpy (version 1.22.4)
scipy:  /zhome/fa/5/1000203270/CAMD2022/venv/lib/python3.8/site-packages/scipy (version 1.8.1)
units:  Angstrom and eV
cores: 8
OpenMP: False
OMP_NUM_THREADS: 1

Input parameters:
  convergence: {density: 0.001,
                eigenstates: 0.0001,
                energy: 0.0002}
  kpts: {gamma: True,
         size: (2, 4, 5)}
  mixer: {backend: pulay,
          beta: 0.1,
          method: separate,
          nmaxold: 5,
          weight: 100.0}
  mode: {ecut: 500.0,
         name: pw}
  nbands: -40
  occupations: {fixmagmom: True,
                name: fermi-dirac,
                width: 0.1}
  setups: {Fe: :d,4.3}
  spinpol: True
  xc: BEEF-vdW

System changes: positions, numbers, cell, pbc, initial_charges, initial_magmoms

Initialize ...

species:
  Fe:
    name: Iron
    id: 37abbd8d6c3c35915a9b583b742da910
    Z: 26.0
    valence: 8
    core: 18
    charge: 0.0
    Hubbard: {U: 4.3,  # eV
              l: 2,
              scale: True}
    file: /zhome/86/d/1666/PAW/gpaw-setups-0.9.20000/Fe.PBE.gz
    compensation charges: {type: gauss,
                           rc: 0.33,
                           lmax: 2}
    cutoffs: {filter: 2.06,
              core: 2.67}
    valence states:
      #              energy  rcut
      - 4s(2.00)    -5.291   1.164
      - 4p(0.00)    -1.326   1.058
      - 3d(6.00)    -7.505   1.058
      -  s          21.920   1.164
      -  p          25.885   1.058
      -  d          19.706   1.058

    # Using partial waves for Fe as LCAO basis

  O:
    name: Oxygen
    id: 32ecd46bf208036f09c70b0ec9a88b78
    Z: 8.0
    valence: 6
    core: 2
    charge: 0.0
    file: /zhome/86/d/1666/PAW/gpaw-setups-0.9.20000/O.PBE.gz
    compensation charges: {type: gauss,
                           rc: 0.21,
                           lmax: 2}
    cutoffs: {filter: 1.17,
              core: 0.83}
    valence states:
      #              energy  rcut
      - 2s(2.00)   -23.961   0.688
      - 2p(4.00)    -9.029   0.598
      -  s           3.251   0.688
      -  p          18.182   0.598
      -  d           0.000   0.619

[...]

  P:
    name: Phosphorus
    id: 03b4a34d18bb161274a4ee27145ba70a
    Z: 15.0
    valence: 5
    core: 10
    charge: 0.0
    file: /zhome/86/d/1666/PAW/gpaw-setups-0.9.20000/P.PBE.gz
    compensation charges: {type: gauss,
                           rc: 0.30,
                           lmax: 2}
    cutoffs: {filter: 1.69,
              core: 1.81}
    valence states:
      #              energy  rcut
      - 3s(2.00)   -13.968   0.953
      - 3p(3.00)    -5.506   0.953
      -  s          13.244   0.953
      -  p          21.705   0.953
      -  d           0.000   0.953

    # Using partial waves for P as LCAO basis

Reference energy: -208343.109853  # eV

Spin-polarized calculation.
Magnetic moment: 20.000000

Convergence criteria:
 Maximum [total energy] change in last 3 cyles: 0.0002 eV / electron
 Maximum integral of absolute [dens]ity change: 0.001 electrons / valence electron
 Maximum integral of absolute [eigenst]ate change: 0.0001 eV^2 / valence electron
 Maximum number of scf [iter]ations: 333
 (Square brackets indicate name in SCF output, whereas a 'c' in
 the SCF output indicates the quantity has converged.)

Symmetries present (total): 1

  ( 1  0  0)
  ( 0  1  0)
  ( 0  0  1)

40 k-points: 2 x 4 x 5 Monkhorst-Pack grid + [1/4,1/8,0.000000]
22 k-points in the irreducible part of the Brillouin zone
       k-points in crystal coordinates                weights
   0:     0.00000000    0.00000000    0.00000000          1/40
   1:     0.00000000    0.00000000    0.20000000          2/40
   2:     0.00000000    0.00000000    0.40000000          2/40
   3:     0.00000000    0.25000000   -0.40000000          2/40
   4:     0.00000000    0.25000000   -0.20000000          2/40
   5:     0.00000000    0.25000000    0.00000000          2/40
   6:     0.00000000    0.25000000    0.20000000          2/40
   7:     0.00000000    0.25000000    0.40000000          2/40
   8:     0.00000000    0.50000000    0.00000000          1/40
   9:     0.00000000    0.50000000    0.20000000          2/40
          ...
  21:     0.50000000    0.50000000    0.40000000          2/40

Wave functions: Plane wave expansion
  Cutoff energy: 500.000 eV
  Number of coefficients (min, max): 7128, 7190
  Pulay-stress correction: 0.000000 eV/Ang^3 (de/decut=0.000000)
  Using FFTW library
  ScaLapack parameters: grid=1x1, blocksize=None
  Wavefunction extrapolation:
    Improved wavefunction reuse through dual PAW basis

Occupation numbers: Fixed magnetic moment: 20.000
Fermi-Dirac:
  width: 0.1000  # eV

Eigensolver
   Davidson(niter=2)

Densities:
  Coarse grid: 54*32*25 grid
  Fine grid: 108*64*50 grid
  Total Charge: 0.000000

Density mixing:
  Method: separate
  Backend: pulay
  Linear mixing parameter: 0.1
  old densities: 5
  Damping of long wavelength oscillations: 100

Hamiltonian:
  XC and Coulomb potentials evaluated on a 108*64*50 grid
  Using the BEEF-vdW Exchange-Correlation functional
  External potential:
    NoExternalPotential

XC parameters: BEEF-vdW with 2 nearest neighbor stencil

Total number of cores used: 8
Parallelization over k-points: 8

Number of atoms: 24
Number of atomic orbitals: 116
Number of bands in calculation: 124
Number of valence electrons: 148
Bands to converge: occupied

... initialized

Initializing position-dependent things.

Density initialized from atomic densities
Creating initial wave functions:
  116 bands from LCAO basis set
  8 bands from random numbers

   / |       OP  O       O   |
  /  O   FeO           O  P  |
 *   |   Fe      O           |
 |   O                   O   |
 |   .-------O-------Fe------.
 |  P  O           O Fe  O  /
 | / O       O  PO         /

Positions:
   0 Fe     2.730151    1.468810    4.565412    ( 0.0000,  0.0000,  5.0000)
   1 Fe     2.239411    4.406429    2.149577    ( 0.0000,  0.0000,  5.0000)
   2 Fe     7.209972    4.406429    0.266158    ( 0.0000,  0.0000,  5.0000)
   3 Fe     7.700707    1.468810    2.681994    ( 0.0000,  0.0000,  5.0000)
   4 O      1.160334    1.468811    3.402402    ( 0.0000,  0.0000,  0.0000)
   5 O      3.808672    4.406430    0.986543    ( 0.0000,  0.0000,  0.0000)
   6 O      8.779815    4.406429    1.429239    ( 0.0000,  0.0000,  0.0000)
   7 O      6.131420    1.468811    3.845098    ( 0.0000,  0.0000,  0.0000)
   8 O      4.372886    1.468810    0.818127    ( 0.0000,  0.0000,  0.0000)
   9 O      0.597646    4.406430    3.234427    ( 0.0000,  0.0000,  0.0000)
  10 O      5.567026    4.406429    4.013463    ( 0.0000,  0.0000,  0.0000)
  11 O      9.342684    1.468809    1.597162    ( 0.0000,  0.0000,  0.0000)
  12 O      1.640017    0.260613    1.172983    ( 0.0000,  0.0000,  0.0000)
  13 O      3.329318    5.614637    3.588826    ( 0.0000,  0.0000,  0.0000)
  14 O      8.300137    3.198262    3.658570    ( 0.0000,  0.0000,  0.0000)
  15 O      6.610770    2.676988    1.242727    ( 0.0000,  0.0000,  0.0000)
  16 O      8.300136    5.614597    3.658569    ( 0.0000,  0.0000,  0.0000)
  17 O      6.610770    0.260632    1.242726    ( 0.0000,  0.0000,  0.0000)
  18 O      1.640017    2.677007    1.172983    ( 0.0000,  0.0000,  0.0000)
  19 O      3.329317    3.198222    3.588827    ( 0.0000,  0.0000,  0.0000)
  20 P      0.905857    1.468810    1.892724    ( 0.0000,  0.0000,  0.0000)
  21 P      4.063635    4.406429    4.308533    ( 0.0000,  0.0000,  0.0000)
  22 P      9.033985    4.406430    2.938779    ( 0.0000,  0.0000,  0.0000)
  23 P      5.876764    1.468810    0.522972    ( 0.0000,  0.0000,  0.0000)

Unit cell:
           periodic     x           y           z      points  spacing
  1. axis:    yes    9.940120    0.000000    0.000000    54     0.1841
  2. axis:    yes    0.000000    5.875240    0.000000    32     0.1836
  3. axis:    yes    0.000000    0.000000    4.831570    25     0.1933

  Lengths:   9.940120   5.875240   4.831570
  Angles:   90.000000  90.000000  90.000000

Effective grid spacing dv^(1/3) = 0.1869

     iter     time        total  log10-change:  magmom
                         energy  eigst   dens
iter:   1 12:00:43  -741.200382                  +19.7103
iter:   2 12:00:55  -730.641373  -1.39  -0.83    +19.7393
iter:   3 12:01:07  -718.941509  -1.09  -0.91    +19.8195
iter:   4 12:01:18  -719.273513  -1.64  -1.24    +19.8741
iter:   5 12:01:30  -721.346568  -1.42  -1.42    +19.9618
iter:   6 12:01:42  -720.061323  -2.04  -1.53    +20.0110
iter:   7 12:01:53  -719.512732  -2.23  -1.85    +19.9971
iter:   8 12:02:05  -719.494718  -3.49  -2.34    +20.0037
iter:   9 12:02:17  -719.485991c -4.34c -2.46    +20.0027
iter:  10 12:02:28  -719.492523c -3.47  -2.61    +20.0008
iter:  11 12:02:40  -719.555532  -3.01  -2.46    +20.0012
iter:  12 12:02:52  -719.488468  -3.44  -2.17    +20.0010
iter:  13 12:03:03  -719.494317  -4.11c -2.90    +20.0006
iter:  14 12:03:15  -719.491142c -5.34c -2.91    +20.0009
iter:  15 12:03:27  -719.491682c -5.21c -3.03c   +20.0011

Converged after 15 iterations.

Dipole moment: (0.002155, -0.000020, -0.000702) |e|*Ang

Total magnetic moment: (0.000000, 0.000000, 20.001125)
Local magnetic moments:
   0 Fe ( 0.000000,  0.000000,  4.367245)
   1 Fe ( 0.000000,  0.000000,  4.367215)
   2 Fe ( 0.000000,  0.000000,  4.367246)
   3 Fe ( 0.000000,  0.000000,  4.367214)
   4 O  ( 0.000000,  0.000000,  0.090082)
   5 O  ( 0.000000,  0.000000,  0.090136)
   6 O  ( 0.000000,  0.000000,  0.090088)
   7 O  ( 0.000000,  0.000000,  0.090141)
   8 O  ( 0.000000,  0.000000,  0.095717)
   9 O  ( 0.000000,  0.000000,  0.095751)
  10 O  ( 0.000000,  0.000000,  0.095665)
  11 O  ( 0.000000,  0.000000,  0.095703)
  12 O  ( 0.000000,  0.000000,  0.125222)
  13 O  ( 0.000000,  0.000000,  0.125202)
  14 O  ( 0.000000,  0.000000,  0.125224)
  15 O  ( 0.000000,  0.000000,  0.125206)
  16 O  ( 0.000000,  0.000000,  0.125225)
  17 O  ( 0.000000,  0.000000,  0.125207)
  18 O  ( 0.000000,  0.000000,  0.125220)
  19 O  ( 0.000000,  0.000000,  0.125204)
  20 P  ( 0.000000,  0.000000,  0.025308)
  21 P  ( 0.000000,  0.000000,  0.025315)
  22 P  ( 0.000000,  0.000000,  0.025307)
  23 P  ( 0.000000,  0.000000,  0.025313)

Energy contributions relative to reference atoms: (reference = -208343.109853)

Kinetic:       +260.977557
Potential:     -220.774131
External:        +0.000000
XC:            -759.452700
Entropy (-ST):   -0.000032
Local:           -0.242392
Free energy:   -719.491697
Extrapolated:  -719.491682

E_Pot= -719.4916815416374
E_Pot= -719.4916815416374
E_Pot= -719.4916815416374
E_Pot= -719.4916815416374
E_Pot= -719.4916815416374
E_Pot= -719.4916815416374
E_Pot= -719.4916815416374
Spin contamination: 0.044611 electrons
Showing only first 2 kpts
                      Up                     Down
 Kpt  Band  Eigenvalues  Occupancy  Eigenvalues  Occupancy
  0    72      1.57617    1.00000      5.15640    0.00000
  0    73      1.68275    1.00000      5.17881    0.00000
  0    74      1.85973    1.00000      5.18154    0.00000
  0    75      1.93805    1.00000      5.26378    0.00000

  1    72      1.56667    1.00000      5.24118    0.00000
  1    73      1.72741    1.00000      5.28529    0.00000
  1    74      1.81366    1.00000      5.28724    0.00000
  1    75      1.93880    1.00000      5.31390    0.00000

Fermi levels: 5.06533, 3.65772

E_Pot= -719.4916815416374
beefvdw ensemble started
beefvdw ensemble finished
Timing:                              incl.     excl.
Hamiltonian:                         6.124     0.002   0.0% |
 Atomic:                             0.593     0.008   0.0% |
  XC Correction:                     0.586     0.586   0.2% |
 Calculate atomic Hamiltonians:      0.189     0.189   0.1% |
 Communicate:                        0.000     0.000   0.0% |
 Initialize Hamiltonian:             0.000     0.000   0.0% |
 Poisson:                            0.002     0.002   0.0% |
 XC 3D grid:                         5.336     1.214   0.5% |
  VdW-DF integral:                   4.122     0.016   0.0% |
   Convolution:                      0.055     0.055   0.0% |
   FFT:                              0.021     0.021   0.0% |
   gather:                           0.244     0.244   0.1% |
   hmm1:                             0.016     0.016   0.0% |
   hmm2:                             0.031     0.031   0.0% |
   iFFT:                             0.030     0.030   0.0% |
   potential:                        0.152     0.004   0.0% |
    collect:                         0.000     0.000   0.0% |
    p1:                              0.077     0.077   0.0% |
    p2:                              0.064     0.064   0.0% |
    sum:                             0.007     0.007   0.0% |
   splines:                          3.558     3.558   1.5% ||
LCAO initialization:                19.307     0.243   0.1% |
 LCAO eigensolver:                   7.394     0.001   0.0% |
  Calculate projections:             0.009     0.009   0.0% |
  DenseAtomicCorrection:             0.008     0.008   0.0% |
  Distribute overlap matrix:         0.001     0.001   0.0% |
  Orbital Layouts:                   0.036     0.036   0.0% |
  Potential matrix:                  7.327     7.327   3.1% ||
  Sum over cells:                    0.013     0.013   0.0% |
 LCAO to grid:                      10.470    10.470   4.4% |-|
 Set positions (LCAO WFS):           1.200     0.249   0.1% |
  Basic WFS set positions:           0.001     0.001   0.0% |
  Basis functions set positions:     0.000     0.000   0.0% |
  P tci:                             0.491     0.491   0.2% |
  ST tci:                            0.394     0.394   0.2% |
  mktci:                             0.065     0.065   0.0% |
PWDescriptor:                        0.219     0.219   0.1% |
SCF-cycle:                         182.294    51.983  21.7% |--------|
 Davidson:                          87.730    22.408   9.3% |---|
  Apply H:                           8.105     7.671   3.2% ||
   HMM T:                            0.434     0.434   0.2% |
  Subspace diag:                    14.586     0.011   0.0% |
   calc_h_matrix:                   10.750     2.758   1.2% |
    Apply H:                         7.992     7.566   3.2% ||
     HMM T:                          0.426     0.426   0.2% |
   diagonalize:                      0.339     0.339   0.1% |
   rotate_psi:                       3.486     3.486   1.5% ||
  calc. matrices:                   31.444    15.559   6.5% |--|
   Apply H:                         15.885    15.054   6.3% |--|
    HMM T:                           0.831     0.831   0.3% |
  diagonalize:                       4.697     4.697   2.0% ||
  rotate_psi:                        6.489     6.489   2.7% ||
 Density:                            7.971     0.000   0.0% |
  Atomic density matrices:           0.144     0.144   0.1% |
  Mix:                               2.942     2.942   1.2% |
  Multipole moments:                 0.008     0.008   0.0% |
  Pseudo density:                    4.877     4.877   2.0% ||
   Symmetrize density:               0.001     0.001   0.0% |
 Hamiltonian:                       34.089     0.025   0.0% |
  Atomic:                            8.321     0.100   0.0% |
   XC Correction:                    8.222     8.222   3.4% ||
  Calculate atomic Hamiltonians:     2.546     2.546   1.1% |
  Communicate:                       0.002     0.002   0.0% |
  Poisson:                           0.031     0.031   0.0% |
  XC 3D grid:                       23.164    17.375   7.2% |--|
   VdW-DF integral:                  5.790     0.188   0.1% |
    Convolution:                     0.766     0.766   0.3% |
    FFT:                             0.400     0.400   0.2% |
    gather:                          1.096     1.096   0.5% |
    hmm1:                            0.232     0.232   0.1% |
    hmm2:                            0.635     0.635   0.3% |
    iFFT:                            0.406     0.406   0.2% |
    potential:                       2.065     0.056   0.0% |
     collect:                        0.000     0.000   0.0% |
     p1:                             1.087     1.087   0.5% |
     p2:                             0.833     0.833   0.3% |
     sum:                            0.090     0.090   0.0% |
    splines:                         0.000     0.000   0.0% |
 Orthonormalize:                     0.521     0.001   0.0% |
  calc_s_matrix:                     0.092     0.092   0.0% |
  inverse-cholesky:                  0.006     0.006   0.0% |
  projections:                       0.311     0.311   0.1% |
  rotate_psi_s:                      0.111     0.111   0.0% |
Set symmetry:                        0.002     0.002   0.0% |
Other:                              31.808    31.808  13.3% |----|
Total:                                       239.754 100.0%

Sender: LSF System <lsfadmin@hpc.dtu.dk>
Subject: Job 13908851: <fepo4.py> in cluster <dcc> Done

Job <fepo4.py> was submitted from host <n-62-27-17> by user <dft22x019> in cluster <dcc> at Tue Aug 16 11:59:45 2022
Job was executed on host(s) <8*n-62-28-29>, in queue <hpc>, as user <dft22x019> in cluster <dcc> at Tue Aug 16 11:59:47 2022
</zhome/fa/5/1000203270> was used as the home directory.
</zhome/fa/5/1000203270/CAMD2022/batteries> was used as the working directory.
Started at Tue Aug 16 11:59:47 2022
Terminated at Tue Aug 16 12:03:56 2022
Results reported at Tue Aug 16 12:03:56 2022

Your job looked like:

# LSBATCH: User input
#!/bin/bash -l
id=$LSB_JOBID
mq=/zhome/fa/5/1000203270/CAMD2022/.myqueue/lsf-$id
source /zhome/fa/5/1000203270/CAMD2022/venv/bin/activate
echo "venv: /zhome/fa/5/1000203270/CAMD2022/venv/bin/activate"
(touch $mq-0 && \
 cd '/zhome/fa/5/1000203270/CAMD2022/batteries' && \
 mpiexec python3 fepo4.py && \
 touch $mq-1) || \
(touch $mq-2; exit 1)

Successfully completed.

Resource usage summary:

    Max Processes :                              13
    Run time :                                   270 sec.
    Turnaround time :                            251 sec.

The output (if any) is above this job summary.

PS:

Read file </zhome/fa/5/1000203270/CAMD2022/batteries/fepo4.py.13908851.err> for stderr output of this job.