User:   dft22x019@n-62-28-28
Date:   Mon Aug 15 17:04:11 2022
Arch:   x86_64
Pid:    22785
CWD:    /zhome/fa/5/1000203270/CAMD2022/batteries
Python: 3.8.5
gpaw:   /zhome/fa/5/1000203270/CAMD2022/venv/gpaw/gpaw (4191706c58)
_gpaw:  /zhome/fa/5/1000203270/CAMD2022/venv/gpaw/
        _gpaw.cpython-38-x86_64-linux-gnu.so (88bf7688a8)
ase:    /zhome/fa/5/1000203270/CAMD2022/venv/ase/ase (version 3.23.0b1-bcce2b6c57)
numpy:  /zhome/fa/5/1000203270/CAMD2022/venv/lib/python3.8/site-packages/numpy (version 1.22.4)
scipy:  /zhome/fa/5/1000203270/CAMD2022/venv/lib/python3.8/site-packages/scipy (version 1.8.1)
units:  Angstrom and eV
cores: 8
OpenMP: False
OMP_NUM_THREADS: 1

Input parameters:
  kpts: [10 10  6]
  mode: {ecut: 500.0,
         name: pw}

System changes: positions, numbers, cell, pbc, initial_charges, initial_magmoms

Initialize ...

species:
  C:
    name: Carbon
    id: d60576a1f549371a163e72552ca58787
    Z: 6.0
    valence: 4
    core: 2
    charge: 0.0
    file: /zhome/86/d/1666/PAW/gpaw-setups-0.9.20000/C.LDA.gz
    compensation charges: {type: gauss,
                           rc: 0.20,
                           lmax: 2}
    cutoffs: {filter: 1.14,
              core: 1.14}
    valence states:
      #              energy  rcut
      - 2s(2.00)   -13.639   0.635
      - 2p(2.00)    -5.414   0.635
      -  s          13.573   0.635
      -  p          21.797   0.635
      -  d           0.000   0.635

    # Using partial waves for C as LCAO basis

Reference energy: -4075.210151  # eV

Spin-paired calculation

Convergence criteria:
 Maximum [total energy] change in last 3 cyles: 0.0005 eV / electron
 Maximum integral of absolute [dens]ity change: 0.0001 electrons / valence electron
 Maximum integral of absolute [eigenst]ate change: 4e-08 eV^2 / valence electron
 Maximum number of scf [iter]ations: 333
 (Square brackets indicate name in SCF output, whereas a 'c' in
 the SCF output indicates the quantity has converged.)

Symmetries present (total): 12

  ( 1  1  0)  ( 1  1  0)  ( 1  0  0)  ( 1  0  0)  ( 0  1  0)  ( 0  1  0)
  ( 0 -1  0)  ( 0 -1  0)  ( 0  1  0)  ( 0  1  0)  (-1 -1  0)  (-1 -1  0)
  ( 0  0  1)  ( 0  0 -1)  ( 0  0  1)  ( 0  0 -1)  ( 0  0  1)  ( 0  0 -1)

  ( 0 -1  0)  ( 0 -1  0)  (-1  0  0)  (-1  0  0)  (-1 -1  0)  (-1 -1  0)
  (-1  0  0)  (-1  0  0)  ( 1  1  0)  ( 1  1  0)  ( 1  0  0)  ( 1  0  0)
  ( 0  0  1)  ( 0  0 -1)  ( 0  0  1)  ( 0  0 -1)  ( 0  0  1)  ( 0  0 -1)
Note: your k-points are not as symmetric as your crystal!

600 k-points: 10 x 10 x 6 Monkhorst-Pack grid
90 k-points in the irreducible part of the Brillouin zone
       k-points in crystal coordinates                weights
   0:     0.05000000   -0.05000000    0.08333333          4/600
   1:     0.05000000   -0.05000000    0.25000000          4/600
   2:     0.05000000   -0.05000000    0.41666667          4/600
   3:     0.05000000    0.05000000    0.08333333          4/600
   4:     0.05000000    0.05000000    0.25000000          4/600
   5:     0.05000000    0.05000000    0.41666667          4/600
   6:     0.15000000   -0.15000000    0.08333333          4/600
   7:     0.15000000   -0.15000000    0.25000000          4/600
   8:     0.15000000   -0.15000000    0.41666667          4/600
   9:     0.15000000   -0.05000000    0.08333333          8/600
          ...
  89:     0.45000000    0.45000000    0.41666667          4/600

Wave functions: Plane wave expansion
  Cutoff energy: 500.000 eV
  Number of coefficients (min, max): 824, 862
  Pulay-stress correction: 0.000000 eV/Ang^3 (de/decut=0.000000)
  Using FFTW library
  ScaLapack parameters: grid=1x1, blocksize=None
  Wavefunction extrapolation:
    Improved wavefunction reuse through dual PAW basis

Occupation numbers: Fermi-Dirac:
  width: 0.1000  # eV

Eigensolver
   Davidson(niter=2)

Densities:
  Coarse grid: 14*14*35 grid
  Fine grid: 28*28*70 grid
  Total Charge: 0.000000

Density mixing:
  Method: separate
  Backend: pulay
  Linear mixing parameter: 0.05
  old densities: 5
  Damping of long wavelength oscillations: 50

Hamiltonian:
  XC and Coulomb potentials evaluated on a 28*28*70 grid
  Using the LDA Exchange-Correlation functional
  External potential:
    NoExternalPotential

Total number of cores used: 8
Parallelization over k-points: 8

Number of atoms: 4
Number of atomic orbitals: 16
Number of bands in calculation: 14
Number of valence electrons: 16
Bands to converge: occupied

... initialized

Initializing position-dependent things.

Density initialized from atomic densities
Creating initial wave functions:
  14 bands from LCAO basis set

        C  C

       CC

Positions:
   0 C      0.000000    0.000000    0.000000    ( 0.0000,  0.0000,  0.0000)
   1 C      0.000000    1.410000    0.000000    ( 0.0000,  0.0000,  0.0000)
   2 C      0.000000    1.410000    3.210000    ( 0.0000,  0.0000,  0.0000)
   3 C      1.221096    0.705000    3.210000    ( 0.0000,  0.0000,  0.0000)

Unit cell:
           periodic     x           y           z      points  spacing
  1. axis:    yes    2.442192    0.000000    0.000000    14     0.1511
  2. axis:    yes   -1.221096    2.115000    0.000000    14     0.1511
  3. axis:    yes    0.000000    0.000000    6.420000    35     0.1834

  Lengths:   2.442192   2.442192   6.420000
  Angles:   90.000000  90.000000 120.000000

Effective grid spacing dv^(1/3) = 0.1691

     iter     time        total  log10-change:
                         energy  eigst   dens
iter:   1 17:04:13   -42.846025
iter:   2 17:04:13   -42.554126  -1.42  -0.78
iter:   3 17:04:13   -42.617152  -0.28  -0.79
iter:   4 17:04:14   -40.962518  -1.61  -0.83
iter:   5 17:04:14   -41.079837  -3.60  -1.13
iter:   6 17:04:14   -40.465574  -1.34  -1.09
iter:   7 17:04:14   -40.466311  -3.15  -2.52
iter:   8 17:04:15   -40.465741c -4.59  -2.43
iter:   9 17:04:15   -40.464490c -4.12  -2.51
iter:  10 17:04:15   -40.464492c -5.40  -3.41
iter:  11 17:04:16   -40.464488c -7.18  -3.21
iter:  12 17:04:16   -40.464499c -5.72  -3.24
iter:  13 17:04:16   -40.464496c -6.09  -3.46
iter:  14 17:04:16   -40.464495c -7.29  -3.77
iter:  15 17:04:17   -40.464494c -6.98  -3.91
iter:  16 17:04:17   -40.464493c -8.04c -4.15c

Converged after 16 iterations.

Dipole moment: (-0.897874, 0.518388, -0.000000) |e|*Ang

Energy contributions relative to reference atoms: (reference = -4075.210151)

Kinetic:        +41.556216
Potential:      -40.956397
External:        +0.000000
XC:             -41.101216
Entropy (-ST):   -0.001395
Local:           +0.037600
Free energy:    -40.465191
Extrapolated:   -40.464493

Showing only first 2 kpts
 Kpt  Band  Eigenvalues  Occupancy
  0     6      3.42926    2.00000
  0     7      3.46240    2.00000
  0     8     10.95157    0.00000
  0     9     15.04815    0.00000

  1     6      3.43339    2.00000
  1     7      3.45804    2.00000
  1     8     11.71854    0.00000
  1     9     15.05432    0.00000

Fermi level: 6.56536

Gap: 0.598 eV
Transition (v -> c):
  (s=0, k=58, n=7, [0.35, 0.35, 0.25]) -> (s=0, k=57, n=8, [0.35, 0.35, 0.08])
Stress tensor:
    -0.004845    -0.000000     0.000000
    -0.000000    -0.004845     0.000000
     0.000000     0.000000    -0.000502
System changes: cell, positions

[...]

     iter     time        total  log10-change:
                         energy  eigst   dens
iter:   1 17:04:19   -42.796077
iter:   2 17:04:19   -42.511181  -1.42  -0.78
iter:   3 17:04:20   -42.602349  -0.29  -0.80
iter:   4 17:04:20   -40.970754  -1.62  -0.83
iter:   5 17:04:20   -41.093472  -3.56  -1.13
iter:   6 17:04:20   -40.466226  -1.33  -1.08
iter:   7 17:04:21   -40.467122  -3.13  -2.53
iter:   8 17:04:21   -40.466637c -4.55  -2.42
iter:   9 17:04:21   -40.465318c -4.22  -2.49
iter:  10 17:04:22   -40.465262c -5.05  -3.24
iter:  11 17:04:22   -40.465261c -6.75  -3.27
iter:  12 17:04:22   -40.465284c -5.58  -3.28
iter:  13 17:04:22   -40.465270c -6.46  -3.46
iter:  14 17:04:23   -40.465269c -7.14  -3.87
iter:  15 17:04:23   -40.465268c -7.39  -4.09c
iter:  16 17:04:23   -40.465268c -8.46c -4.53c

[...]

Gap: 0.593 eV
Transition (v -> c):
  (s=0, k=58, n=7, [0.35, 0.35, 0.25]) -> (s=0, k=57, n=8, [0.35, 0.35, 0.08])
Stress tensor:
     0.014627    -0.000000     0.000000
     0.000000     0.014627     0.000000
     0.000000     0.000000    -0.000422
System changes: cell, positions

Initialize ...

species:
  C:
    name: Carbon
    id: d60576a1f549371a163e72552ca58787
    Z: 6.0
    valence: 4
    core: 2
    charge: 0.0
    file: /zhome/86/d/1666/PAW/gpaw-setups-0.9.20000/C.LDA.gz
    compensation charges: {type: gauss,
                           rc: 0.20,
                           lmax: 2}
    cutoffs: {filter: 1.14,
              core: 1.14}
    valence states:
      #              energy  rcut
      - 2s(2.00)   -13.639   0.635
      - 2p(2.00)    -5.414   0.635
      -  s          13.573   0.635
      -  p          21.797   0.635
      -  d           0.000   0.635

    # Using partial waves for C as LCAO basis

Reference energy: -4075.210151  # eV

Spin-paired calculation

Convergence criteria:
 Maximum [total energy] change in last 3 cyles: 0.0005 eV / electron
 Maximum integral of absolute [dens]ity change: 0.0001 electrons / valence electron
 Maximum integral of absolute [eigenst]ate change: 4e-08 eV^2 / valence electron
 Maximum number of scf [iter]ations: 333
 (Square brackets indicate name in SCF output, whereas a 'c' in
 the SCF output indicates the quantity has converged.)

Symmetries present (total): 12

  ( 1  1  0)  ( 1  1  0)  ( 1  0  0)  ( 1  0  0)  ( 0  1  0)  ( 0  1  0)
  ( 0 -1  0)  ( 0 -1  0)  ( 0  1  0)  ( 0  1  0)  (-1 -1  0)  (-1 -1  0)
  ( 0  0  1)  ( 0  0 -1)  ( 0  0  1)  ( 0  0 -1)  ( 0  0  1)  ( 0  0 -1)

  ( 0 -1  0)  ( 0 -1  0)  (-1  0  0)  (-1  0  0)  (-1 -1  0)  (-1 -1  0)
  (-1  0  0)  (-1  0  0)  ( 1  1  0)  ( 1  1  0)  ( 1  0  0)  ( 1  0  0)
  ( 0  0  1)  ( 0  0 -1)  ( 0  0  1)  ( 0  0 -1)  ( 0  0  1)  ( 0  0 -1)
Note: your k-points are not as symmetric as your crystal!

600 k-points: 10 x 10 x 6 Monkhorst-Pack grid
90 k-points in the irreducible part of the Brillouin zone
       k-points in crystal coordinates                weights
   0:     0.05000000   -0.05000000    0.08333333          4/600
   1:     0.05000000   -0.05000000    0.25000000          4/600
   2:     0.05000000   -0.05000000    0.41666667          4/600
   3:     0.05000000    0.05000000    0.08333333          4/600
   4:     0.05000000    0.05000000    0.25000000          4/600
   5:     0.05000000    0.05000000    0.41666667          4/600
   6:     0.15000000   -0.15000000    0.08333333          4/600
   7:     0.15000000   -0.15000000    0.25000000          4/600
   8:     0.15000000   -0.15000000    0.41666667          4/600
   9:     0.15000000   -0.05000000    0.08333333          8/600
          ...
  89:     0.45000000    0.45000000    0.41666667          4/600

Wave functions: Plane wave expansion
  Cutoff energy: 500.000 eV
  Number of coefficients (min, max): 825, 864
  Pulay-stress correction: 0.000000 eV/Ang^3 (de/decut=0.000000)
  Using FFTW library
  ScaLapack parameters: grid=1x1, blocksize=None
  Wavefunction extrapolation:
    Improved wavefunction reuse through dual PAW basis

Occupation numbers: Fermi-Dirac:
  width: 0.1000  # eV

Eigensolver
   Davidson(niter=2)

Densities:
  Coarse grid: 14*14*35 grid
  Fine grid: 28*28*70 grid
  Total Charge: 0.000000

Density mixing:
  Method: separate
  Backend: pulay
  Linear mixing parameter: 0.05
  old densities: 5
  Damping of long wavelength oscillations: 50

Hamiltonian:
  XC and Coulomb potentials evaluated on a 28*28*70 grid
  Using the LDA Exchange-Correlation functional
  External potential:
    NoExternalPotential

Total number of cores used: 8
Parallelization over k-points: 8

Number of atoms: 4
Number of atomic orbitals: 16
Number of bands in calculation: 14
Number of valence electrons: 16
Bands to converge: occupied

... initialized

Initializing position-dependent things.

Density initialized from atomic densities
Creating initial wave functions:
  14 bands from LCAO basis set

        C  C

       CC

Positions:
   0 C      0.000000    0.000000    0.000000    ( 0.0000,  0.0000,  0.0000)
   1 C      0.000000    1.410806    0.000000    ( 0.0000,  0.0000,  0.0000)
   2 C      0.000000    1.410806    3.210928    ( 0.0000,  0.0000,  0.0000)
   3 C      1.221794    0.705403    3.210928    ( 0.0000,  0.0000,  0.0000)

Unit cell:
           periodic     x           y           z      points  spacing
  1. axis:    yes    2.443587    0.000000    0.000000    14     0.1512
  2. axis:    yes   -1.221794    2.116209    0.000000    14     0.1512
  3. axis:    yes    0.000000    0.000000    6.421856    35     0.1835

  Lengths:   2.443587   2.443587   6.421856
  Angles:   90.000000  90.000000 120.000000

Effective grid spacing dv^(1/3) = 0.1692

     iter     time        total  log10-change:
                         energy  eigst   dens
iter:   1 17:04:25   -42.833916
iter:   2 17:04:26   -42.543837  -1.42  -0.78
iter:   3 17:04:26   -42.619848  -0.28  -0.79
iter:   4 17:04:26   -40.966953  -1.61  -0.83
iter:   5 17:04:26   -41.085757  -3.59  -1.13
iter:   6 17:04:27   -40.466048  -1.34  -1.09
iter:   7 17:04:27   -40.466842  -3.14  -2.52
iter:   8 17:04:27   -40.466282c -4.58  -2.42
iter:   9 17:04:28   -40.464995c -4.12  -2.50
iter:  10 17:04:28   -40.464993c -5.35  -3.41
iter:  11 17:04:28   -40.464991c -7.11  -3.22
iter:  12 17:04:28   -40.465009c -5.48  -3.24
iter:  13 17:04:29   -40.464999c -6.51  -3.48
iter:  14 17:04:29   -40.464996c -6.49  -3.72
iter:  15 17:04:29   -40.464996c -7.90c -4.56c

Converged after 15 iterations.

Dipole moment: (-0.897507, 0.518176, -0.000000) |e|*Ang

Energy contributions relative to reference atoms: (reference = -4075.210151)

Kinetic:        +41.220142
Potential:      -40.699858
External:        +0.000000
XC:             -41.023731
Entropy (-ST):   -0.001400
Local:           +0.039151
Free energy:    -40.465696
Extrapolated:   -40.464996

Showing only first 2 kpts
 Kpt  Band  Eigenvalues  Occupancy
  0     6      3.41316    2.00000
  0     7      3.44630    2.00000
  0     8     10.94007    0.00000
  0     9     15.02096    0.00000

  1     6      3.41726    2.00000
  1     7      3.44191    2.00000
  1     8     11.70643    0.00000
  1     9     15.02720    0.00000

Fermi level: 6.54994

Gap: 0.597 eV
Transition (v -> c):
  (s=0, k=58, n=7, [0.35, 0.35, 0.25]) -> (s=0, k=57, n=8, [0.35, 0.35, 0.08])
Stress tensor:
     0.000084     0.000000     0.000000
     0.000000     0.000084     0.000000
     0.000000     0.000000    -0.000191
Timing:                              incl.     excl.
Hamiltonian:                         0.098     0.001   0.0% |
 Atomic:                             0.060     0.060   0.3% |
  XC Correction:                     0.000     0.000   0.0% |
 Calculate atomic Hamiltonians:      0.007     0.007   0.0% |
 Communicate:                        0.000     0.000   0.0% |
 Initialize Hamiltonian:             0.000     0.000   0.0% |
 Poisson:                            0.001     0.001   0.0% |
 XC 3D grid:                         0.028     0.028   0.1% |
LCAO initialization:                 3.351     0.064   0.3% |
 LCAO eigensolver:                   1.278     0.002   0.0% |
  Calculate projections:             0.001     0.001   0.0% |
  DenseAtomicCorrection:             0.004     0.004   0.0% |
  Distribute overlap matrix:         0.001     0.001   0.0% |
  Orbital Layouts:                   0.021     0.021   0.1% |
  Potential matrix:                  1.237     1.237   6.5% |--|
  Sum over cells:                    0.012     0.012   0.1% |
 LCAO to grid:                       0.818     0.818   4.3% |-|
 Set positions (LCAO WFS):           1.191     0.203   1.1% |
  Basic WFS set positions:           0.005     0.005   0.0% |
  Basis functions set positions:     0.000     0.000   0.0% |
  P tci:                             0.292     0.292   1.5% ||
  ST tci:                            0.566     0.566   3.0% ||
  mktci:                             0.126     0.126   0.7% |
PWDescriptor:                        0.059     0.059   0.3% |
SCF-cycle:                          13.186     1.857   9.8% |---|
 Davidson:                           9.145     2.137  11.2% |---|
  Apply H:                           1.211     1.129   5.9% |-|
   HMM T:                            0.083     0.083   0.4% |
  Subspace diag:                     1.669     0.038   0.2% |
   calc_h_matrix:                    1.437     0.220   1.2% |
    Apply H:                         1.217     1.128   5.9% |-|
     HMM T:                          0.089     0.089   0.5% |
   diagonalize:                      0.088     0.088   0.5% |
   rotate_psi:                       0.106     0.106   0.6% |
  calc. matrices:                    3.612     1.199   6.3% |--|
   Apply H:                          2.413     2.248  11.8% |----|
    HMM T:                           0.165     0.165   0.9% |
  diagonalize:                       0.337     0.337   1.8% ||
  rotate_psi:                        0.179     0.179   0.9% |
 Density:                            1.081     0.001   0.0% |
  Atomic density matrices:           0.093     0.093   0.5% |
  Mix:                               0.207     0.207   1.1% |
  Multipole moments:                 0.006     0.006   0.0% |
  Pseudo density:                    0.773     0.556   2.9% ||
   Symmetrize density:               0.218     0.218   1.1% |
 Hamiltonian:                        1.067     0.016   0.1% |
  Atomic:                            0.536     0.536   2.8% ||
   XC Correction:                    0.000     0.000   0.0% |
  Calculate atomic Hamiltonians:     0.085     0.085   0.4% |
  Communicate:                       0.004     0.004   0.0% |
  Poisson:                           0.012     0.012   0.1% |
  XC 3D grid:                        0.413     0.413   2.2% ||
 Orthonormalize:                     0.036     0.003   0.0% |
  calc_s_matrix:                     0.009     0.009   0.0% |
  inverse-cholesky:                  0.003     0.003   0.0% |
  projections:                       0.018     0.018   0.1% |
  rotate_psi_s:                      0.003     0.003   0.0% |
Set symmetry:                        0.097     0.097   0.5% |
Stress:                              1.174     0.000   0.0% |
 Stress tensor:                      1.174     1.174   6.2% |-|
Other:                               1.044     1.044   5.5% |-|
Total:                                        19.009 100.0%