User:   dft22x019@n-62-30-5
Date:   Tue Aug 16 11:12:40 2022
Arch:   x86_64
Pid:    11111
CWD:    /zhome/fa/5/1000203270/CAMD2022/batteries
Python: 3.8.5
gpaw:   /zhome/fa/5/1000203270/CAMD2022/venv/gpaw/gpaw (4191706c58)
_gpaw:  /zhome/fa/5/1000203270/CAMD2022/venv/gpaw/
        _gpaw.cpython-38-x86_64-linux-gnu.so (88bf7688a8)
ase:    /zhome/fa/5/1000203270/CAMD2022/venv/ase/ase (version 3.23.0b1-bcce2b6c57)
numpy:  /zhome/fa/5/1000203270/CAMD2022/venv/lib/python3.8/site-packages/numpy (version 1.22.4)
scipy:  /zhome/fa/5/1000203270/CAMD2022/venv/lib/python3.8/site-packages/scipy (version 1.8.1)
units:  Angstrom and eV
cores: 1
OpenMP: False
OMP_NUM_THREADS: 1

Input parameters:
  kpts: [8 8 8]
  mode: {ecut: 500.0,
         name: pw}
  nbands: -10
  xc: PBE

System changes: positions, numbers, cell, pbc, initial_charges, initial_magmoms

Initialize ...

species:
  Li:
    name: Lithium
    id: 830b4218f175192f93f959cfc0aad614
    Z: 3.0
    valence: 1
    core: 2
    charge: 0.0
    file: /zhome/86/d/1666/PAW/gpaw-setups-0.9.20000/Li.PBE.gz
    compensation charges: {type: gauss,
                           rc: 0.33,
                           lmax: 2}
    cutoffs: {filter: 1.91,
              core: 2.55}
    valence states:
      #              energy  rcut
      - 2s(1.00)    -2.874   1.058
      - 2p(0.00)    -1.090   1.058
      -  s          24.337   1.058

    # Using partial waves for Li as LCAO basis

Reference energy: -202.787820  # eV

Spin-paired calculation

Convergence criteria:
 Maximum [total energy] change in last 3 cyles: 0.0005 eV / electron
 Maximum integral of absolute [dens]ity change: 0.0001 electrons / valence electron
 Maximum integral of absolute [eigenst]ate change: 4e-08 eV^2 / valence electron
 Maximum number of scf [iter]ations: 333
 (Square brackets indicate name in SCF output, whereas a 'c' in
 the SCF output indicates the quantity has converged.)

Symmetries present (total): 48

  ( 1  1  1)  ( 1  1  1)  ( 1  1  1)  ( 1  1  1)  ( 1  1  1)  ( 1  1  1)
  ( 0  0 -1)  ( 0  0 -1)  ( 0 -1  0)  ( 0 -1  0)  (-1  0  0)  (-1  0  0)
  ( 0 -1  0)  (-1  0  0)  ( 0  0 -1)  (-1  0  0)  ( 0  0 -1)  ( 0 -1  0)

[...]

  (-1  0  0)  (-1  0  0)  (-1  0  0)  (-1  0  0)  (-1  0  0)  (-1  0  0)
  ( 1  1  1)  ( 1  1  1)  ( 0  0 -1)  ( 0  0 -1)  ( 0 -1  0)  ( 0 -1  0)
  ( 0  0 -1)  ( 0 -1  0)  ( 1  1  1)  ( 0 -1  0)  ( 1  1  1)  ( 0  0 -1)

[...]

512 k-points: 8 x 8 x 8 Monkhorst-Pack grid
26 k-points in the irreducible part of the Brillouin zone
       k-points in crystal coordinates                weights
   0:     0.06250000    0.06250000   -0.06250000          6/512
   1:     0.18750000   -0.06250000   -0.06250000          8/512
   2:     0.18750000    0.06250000   -0.06250000         24/512
   3:     0.18750000    0.18750000   -0.18750000          6/512
   4:     0.31250000   -0.06250000   -0.06250000         24/512
   5:     0.31250000    0.06250000   -0.18750000         24/512
   6:     0.31250000    0.06250000   -0.06250000         24/512
   7:     0.31250000    0.18750000   -0.18750000         24/512
   8:     0.31250000    0.31250000   -0.31250000          6/512
   9:     0.31250000    0.31250000    0.18750000         12/512
          ...
  25:     0.43750000    0.43750000    0.43750000          8/512

Wave functions: Plane wave expansion
  Cutoff energy: 500.000 eV
  Number of coefficients (min, max): 446, 469
  Pulay-stress correction: 0.000000 eV/Ang^3 (de/decut=0.000000)
  Using FFTW library
  ScaLapack parameters: grid=1x1, blocksize=None
  Wavefunction extrapolation:
    Improved wavefunction reuse through dual PAW basis

Occupation numbers: Fermi-Dirac:
  width: 0.1000  # eV

Eigensolver
   Davidson(niter=2)

Densities:
  Coarse grid: 15*15*15 grid
  Fine grid: 30*30*30 grid
  Total Charge: 0.000000

Density mixing:
  Method: separate
  Backend: pulay
  Linear mixing parameter: 0.05
  old densities: 5
  Damping of long wavelength oscillations: 50

Hamiltonian:
  XC and Coulomb potentials evaluated on a 30*30*30 grid
  Using the PBE Exchange-Correlation functional
  External potential:
    NoExternalPotential

XC parameters: PBE with 2 nearest neighbor stencil

Total number of cores used: 1

Number of atoms: 1
Number of atomic orbitals: 4
Number of bands in calculation: 10
Number of valence electrons: 1
Bands to converge: occupied

... initialized

Initializing position-dependent things.

Density initialized from atomic densities
Creating initial wave functions:
  4 bands from LCAO basis set
  6 bands from random numbers

       Li

Positions:
   0 Li     0.000000    0.000000    0.000000    ( 0.0000,  0.0000,  0.0000)

Unit cell:
           periodic     x           y           z      points  spacing
  1. axis:    yes   -1.650000    1.650000    1.650000    15     0.1556
  2. axis:    yes    1.650000   -1.650000    1.650000    15     0.1556
  3. axis:    yes    1.650000    1.650000   -1.650000    15     0.1556

  Lengths:   2.857884   2.857884   2.857884
  Angles:  109.471221 109.471221 109.471221

Effective grid spacing dv^(1/3) = 0.1746

     iter     time        total  log10-change:
                         energy  eigst   dens
iter:   1 11:12:42    -1.926637
iter:   2 11:12:42    -1.923500  -2.56  -1.18
iter:   3 11:12:43    -1.905270  -2.56  -1.20
iter:   4 11:12:44    -1.905183  -5.38  -2.73
iter:   5 11:12:44    -1.905052c -3.82  -2.63
iter:   6 11:12:45    -1.904985c -6.30  -1.95
iter:   7 11:12:46    -1.904985c -8.52c -3.54
iter:   8 11:12:46    -1.904985c -8.51c -3.54
iter:   9 11:12:47    -1.904985c -9.16c -4.23c

Converged after 9 iterations.

Dipole moment: (0.000000, -0.000000, 0.000000) |e|*Ang

Energy contributions relative to reference atoms: (reference = -202.787820)

Kinetic:         +2.697636
Potential:       -2.149091
External:        +0.000000
XC:              -2.440038
Entropy (-ST):   -0.007423
Local:           -0.009780
Free energy:     -1.908697
Extrapolated:    -1.904985

Showing only first 2 kpts
 Kpt  Band  Eigenvalues  Occupancy
  0     0     -2.90429    2.00000
  0     1     15.83969    0.00000

  1     0     -2.59553    2.00000
  1     1     14.49144    0.00000

Fermi level: 0.70337

No gap
Stress tensor:
    -0.012354    -0.000000    -0.000000
    -0.000000    -0.012354     0.000000
    -0.000000     0.000000    -0.012354
System changes: cell

[...]

     iter     time        total  log10-change:
                         energy  eigst   dens
iter:   1 11:12:49    -1.927202
iter:   2 11:12:50    -1.924144  -2.50  -1.19
iter:   3 11:12:50    -1.906273  -2.47  -1.20
iter:   4 11:12:51    -1.906057  -5.11  -2.33
iter:   5 11:12:51    -1.906188c -5.65  -2.64
iter:   6 11:12:52    -1.905858c -4.02  -2.01
iter:   7 11:12:52    -1.905859c -5.54  -3.53
iter:   8 11:12:52    -1.905859c -6.77  -3.56
iter:   9 11:12:53    -1.905859c -7.89c -3.89
iter:  10 11:12:53    -1.905858c -8.15c -3.39
iter:  11 11:12:53    -1.905856c -6.07  -3.25
iter:  12 11:12:53    -1.905859c -6.41  -2.57
iter:  13 11:12:54    -1.905859c -7.99c -5.20c

[...]

No gap
Stress tensor:
    -0.011831    -0.000000     0.000000
    -0.000000    -0.011831     0.000000
     0.000000     0.000000    -0.011831
System changes: cell

Initialize ...

species:
  Li:
    name: Lithium
    id: 830b4218f175192f93f959cfc0aad614
    Z: 3.0
    valence: 1
    core: 2
    charge: 0.0
    file: /zhome/86/d/1666/PAW/gpaw-setups-0.9.20000/Li.PBE.gz
    compensation charges: {type: gauss,
                           rc: 0.33,
                           lmax: 2}
    cutoffs: {filter: 1.91,
              core: 2.55}
    valence states:
      #              energy  rcut
      - 2s(1.00)    -2.874   1.058
      - 2p(0.00)    -1.090   1.058
      -  s          24.337   1.058

    # Using partial waves for Li as LCAO basis

Reference energy: -202.787820  # eV

Spin-paired calculation

Convergence criteria:
 Maximum [total energy] change in last 3 cyles: 0.0005 eV / electron
 Maximum integral of absolute [dens]ity change: 0.0001 electrons / valence electron
 Maximum integral of absolute [eigenst]ate change: 4e-08 eV^2 / valence electron
 Maximum number of scf [iter]ations: 333
 (Square brackets indicate name in SCF output, whereas a 'c' in
 the SCF output indicates the quantity has converged.)

Symmetries present (total): 48

[...]

  ( 0 -1  0)  ( 0 -1  0)  ( 0 -1  0)  ( 0 -1  0)  ( 0 -1  0)  ( 0 -1  0)
  ( 1  1  1)  ( 1  1  1)  ( 0  0 -1)  ( 0  0 -1)  (-1  0  0)  (-1  0  0)
  ( 0  0 -1)  (-1  0  0)  ( 1  1  1)  (-1  0  0)  ( 1  1  1)  ( 0  0 -1)

[...]

  (-1 -1 -1)  (-1 -1 -1)  (-1 -1 -1)  (-1 -1 -1)  (-1 -1 -1)  (-1 -1 -1)
  ( 1  0  0)  ( 1  0  0)  ( 0  1  0)  ( 0  1  0)  ( 0  0  1)  ( 0  0  1)
  ( 0  1  0)  ( 0  0  1)  ( 1  0  0)  ( 0  0  1)  ( 1  0  0)  ( 0  1  0)

512 k-points: 8 x 8 x 8 Monkhorst-Pack grid
26 k-points in the irreducible part of the Brillouin zone
       k-points in crystal coordinates                weights
   0:     0.06250000    0.06250000   -0.06250000          6/512
   1:     0.18750000   -0.06250000   -0.06250000          8/512
   2:     0.18750000    0.06250000   -0.06250000         24/512
   3:     0.18750000    0.18750000   -0.18750000          6/512
   4:     0.31250000   -0.06250000   -0.06250000         24/512
   5:     0.31250000    0.06250000   -0.18750000         24/512
   6:     0.31250000    0.06250000   -0.06250000         24/512
   7:     0.31250000    0.18750000   -0.18750000         24/512
   8:     0.31250000    0.31250000   -0.31250000          6/512
   9:     0.31250000    0.31250000    0.18750000         12/512
          ...
  25:     0.43750000    0.43750000    0.43750000          8/512

Wave functions: Plane wave expansion
  Cutoff energy: 500.000 eV
  Number of coefficients (min, max): 474, 489
  Pulay-stress correction: 0.000000 eV/Ang^3 (de/decut=0.000000)
  Using FFTW library
  ScaLapack parameters: grid=1x1, blocksize=None
  Wavefunction extrapolation:
    Improved wavefunction reuse through dual PAW basis

Occupation numbers: Fermi-Dirac:
  width: 0.1000  # eV

Eigensolver
   Davidson(niter=2)

Densities:
  Coarse grid: 16*16*16 grid
  Fine grid: 32*32*32 grid
  Total Charge: 0.000000

Density mixing:
  Method: separate
  Backend: pulay
  Linear mixing parameter: 0.05
  old densities: 5
  Damping of long wavelength oscillations: 50

Hamiltonian:
  XC and Coulomb potentials evaluated on a 32*32*32 grid
  Using the PBE Exchange-Correlation functional
  External potential:
    NoExternalPotential

XC parameters: PBE with 2 nearest neighbor stencil

Total number of cores used: 1

Number of atoms: 1
Number of atomic orbitals: 4
Number of bands in calculation: 10
Number of valence electrons: 1
Bands to converge: occupied

... initialized

Initializing position-dependent things.

Density initialized from atomic densities
Creating initial wave functions:
  4 bands from LCAO basis set
  6 bands from random numbers

       Li

Positions:
   0 Li     0.000000    0.000000    0.000000    ( 0.0000,  0.0000,  0.0000)

Unit cell:
           periodic     x           y           z      points  spacing
  1. axis:    yes   -1.679526    1.679526    1.679526    16     0.1485
  2. axis:    yes    1.679526   -1.679526    1.679526    16     0.1485
  3. axis:    yes    1.679526    1.679526   -1.679526    16     0.1485

  Lengths:   2.909024   2.909024   2.909024
  Angles:  109.471221 109.471221 109.471221

Effective grid spacing dv^(1/3) = 0.1666

     iter     time        total  log10-change:
                         energy  eigst   dens
iter:   1 11:12:55    -1.931780
iter:   2 11:12:56    -1.929303  -2.58  -1.20
iter:   3 11:12:56    -1.913931  -2.83  -1.22
iter:   4 11:12:57    -1.913873  -5.53  -2.73
iter:   5 11:12:57    -1.913722c -3.95  -2.65
iter:   6 11:12:57    -1.913698c -7.00  -2.31
iter:   7 11:12:58    -1.913698c -8.03c -3.71
iter:   8 11:12:59    -1.913698c -8.72c -3.61
iter:   9 11:12:59    -1.913698c -9.63c -4.67c

Converged after 9 iterations.

Dipole moment: (-0.000000, -0.000000, -0.000000) |e|*Ang

Energy contributions relative to reference atoms: (reference = -202.787820)

Kinetic:         +2.328640
Potential:       -1.908623
External:        +0.000000
XC:              -2.320818
Entropy (-ST):   -0.007860
Local:           -0.008967
Free energy:     -1.917628
Extrapolated:    -1.913698

Showing only first 2 kpts
 Kpt  Band  Eigenvalues  Occupancy
  0     0     -2.98762    2.00000
  0     1     15.12743    0.00000

  1     0     -2.68403    2.00000
  1     1     13.81382    0.00000

Fermi level: 0.56043

No gap