User:   dft22x019@n-62-30-5
Date:   Tue Aug 16 11:11:55 2022
Arch:   x86_64
Pid:    11111
CWD:    /zhome/fa/5/1000203270/CAMD2022/batteries
Python: 3.8.5
gpaw:   /zhome/fa/5/1000203270/CAMD2022/venv/gpaw/gpaw (4191706c58)
_gpaw:  /zhome/fa/5/1000203270/CAMD2022/venv/gpaw/
        _gpaw.cpython-38-x86_64-linux-gnu.so (88bf7688a8)
ase:    /zhome/fa/5/1000203270/CAMD2022/venv/ase/ase (version 3.23.0b1-bcce2b6c57)
numpy:  /zhome/fa/5/1000203270/CAMD2022/venv/lib/python3.8/site-packages/numpy (version 1.22.4)
scipy:  /zhome/fa/5/1000203270/CAMD2022/venv/lib/python3.8/site-packages/scipy (version 1.8.1)
units:  Angstrom and eV
cores: 1
OpenMP: False
OMP_NUM_THREADS: 1

Input parameters:
  kpts: [8 8 8]
  mode: {ecut: 500.0,
         name: pw}
  nbands: -10

System changes: positions, numbers, cell, pbc, initial_charges, initial_magmoms

Initialize ...

species:
  Li:
    name: Lithium
    id: b73562207f97a71b6967473b66fe8b65
    Z: 3.0
    valence: 1
    core: 2
    charge: 0.0
    file: /zhome/86/d/1666/PAW/gpaw-setups-0.9.20000/Li.LDA.gz
    compensation charges: {type: gauss,
                           rc: 0.33,
                           lmax: 2}
    cutoffs: {filter: 1.91,
              core: 2.55}
    valence states:
      #              energy  rcut
      - 2s(1.00)    -2.874   1.058
      - 2p(0.00)    -1.126   1.058
      -  s          24.338   1.058

    # Using partial waves for Li as LCAO basis

Reference energy: -199.608796  # eV

Spin-paired calculation

Convergence criteria:
 Maximum [total energy] change in last 3 cyles: 0.0005 eV / electron
 Maximum integral of absolute [dens]ity change: 0.0001 electrons / valence electron
 Maximum integral of absolute [eigenst]ate change: 4e-08 eV^2 / valence electron
 Maximum number of scf [iter]ations: 333
 (Square brackets indicate name in SCF output, whereas a 'c' in
 the SCF output indicates the quantity has converged.)

Symmetries present (total): 48

  ( 1  1  1)  ( 1  1  1)  ( 1  1  1)  ( 1  1  1)  ( 1  1  1)  ( 1  1  1)
  ( 0  0 -1)  ( 0  0 -1)  ( 0 -1  0)  ( 0 -1  0)  (-1  0  0)  (-1  0  0)
  ( 0 -1  0)  (-1  0  0)  ( 0  0 -1)  (-1  0  0)  ( 0  0 -1)  ( 0 -1  0)

[...]

  (-1  0  0)  (-1  0  0)  (-1  0  0)  (-1  0  0)  (-1  0  0)  (-1  0  0)
  ( 1  1  1)  ( 1  1  1)  ( 0  0 -1)  ( 0  0 -1)  ( 0 -1  0)  ( 0 -1  0)
  ( 0  0 -1)  ( 0 -1  0)  ( 1  1  1)  ( 0 -1  0)  ( 1  1  1)  ( 0  0 -1)

[...]

512 k-points: 8 x 8 x 8 Monkhorst-Pack grid
26 k-points in the irreducible part of the Brillouin zone
       k-points in crystal coordinates                weights
   0:     0.06250000    0.06250000   -0.06250000          6/512
   1:     0.18750000   -0.06250000   -0.06250000          8/512
   2:     0.18750000    0.06250000   -0.06250000         24/512
   3:     0.18750000    0.18750000   -0.18750000          6/512
   4:     0.31250000   -0.06250000   -0.06250000         24/512
   5:     0.31250000    0.06250000   -0.18750000         24/512
   6:     0.31250000    0.06250000   -0.06250000         24/512
   7:     0.31250000    0.18750000   -0.18750000         24/512
   8:     0.31250000    0.31250000   -0.31250000          6/512
   9:     0.31250000    0.31250000    0.18750000         12/512
          ...
  25:     0.43750000    0.43750000    0.43750000          8/512

Wave functions: Plane wave expansion
  Cutoff energy: 500.000 eV
  Number of coefficients (min, max): 446, 469
  Pulay-stress correction: 0.000000 eV/Ang^3 (de/decut=0.000000)
  Using FFTW library
  ScaLapack parameters: grid=1x1, blocksize=None
  Wavefunction extrapolation:
    Improved wavefunction reuse through dual PAW basis

Occupation numbers: Fermi-Dirac:
  width: 0.1000  # eV

Eigensolver
   Davidson(niter=2)

Densities:
  Coarse grid: 15*15*15 grid
  Fine grid: 30*30*30 grid
  Total Charge: 0.000000

Density mixing:
  Method: separate
  Backend: pulay
  Linear mixing parameter: 0.05
  old densities: 5
  Damping of long wavelength oscillations: 50

Hamiltonian:
  XC and Coulomb potentials evaluated on a 30*30*30 grid
  Using the LDA Exchange-Correlation functional
  External potential:
    NoExternalPotential

Total number of cores used: 1

Number of atoms: 1
Number of atomic orbitals: 4
Number of bands in calculation: 10
Number of valence electrons: 1
Bands to converge: occupied

... initialized

Initializing position-dependent things.

Density initialized from atomic densities
Creating initial wave functions:
  4 bands from LCAO basis set
  6 bands from random numbers

       Li

Positions:
   0 Li     0.000000    0.000000    0.000000    ( 0.0000,  0.0000,  0.0000)

Unit cell:
           periodic     x           y           z      points  spacing
  1. axis:    yes   -1.650000    1.650000    1.650000    15     0.1556
  2. axis:    yes    1.650000   -1.650000    1.650000    15     0.1556
  3. axis:    yes    1.650000    1.650000   -1.650000    15     0.1556

  Lengths:   2.857884   2.857884   2.857884
  Angles:  109.471221 109.471221 109.471221

Effective grid spacing dv^(1/3) = 0.1746

     iter     time        total  log10-change:
                         energy  eigst   dens
iter:   1 11:11:57    -2.046948
iter:   2 11:11:57    -2.047236  -2.72  -1.16
iter:   3 11:11:58    -2.047766  -2.57  -1.18
iter:   4 11:11:58    -2.047726  -5.05  -2.06
iter:   5 11:11:59    -2.047701c -5.65  -3.21
iter:   6 11:11:59    -2.047707c -6.89  -2.29
iter:   7 11:12:00    -2.047707c -9.20c -4.46c

Converged after 7 iterations.

Dipole moment: (0.000000, -0.000000, -0.000000) |e|*Ang

Energy contributions relative to reference atoms: (reference = -199.608796)

Kinetic:         +2.851944
Potential:       -2.267607
External:        +0.000000
XC:              -2.618281
Entropy (-ST):   -0.007477
Local:           -0.010025
Free energy:     -2.051446
Extrapolated:    -2.047707

Showing only first 2 kpts
 Kpt  Band  Eigenvalues  Occupancy
  0     0     -2.96494    2.00000
  0     1     15.44519    0.00000

  1     0     -2.66153    2.00000
  1     1     14.14987    0.00000

Fermi level: 0.57764

No gap
Stress tensor:
    -0.005909    -0.000000    -0.000000
    -0.000000    -0.005909     0.000000
    -0.000000     0.000000    -0.005909
System changes: cell

[...]

No gap
Stress tensor:
    -0.005392    -0.000000    -0.000000
    -0.000000    -0.005392     0.000000
    -0.000000     0.000000    -0.005392
System changes: cell

Initialize ...

species:
  Li:
    name: Lithium
    id: b73562207f97a71b6967473b66fe8b65
    Z: 3.0
    valence: 1
    core: 2
    charge: 0.0
    file: /zhome/86/d/1666/PAW/gpaw-setups-0.9.20000/Li.LDA.gz
    compensation charges: {type: gauss,
                           rc: 0.33,
                           lmax: 2}
    cutoffs: {filter: 1.91,
              core: 2.55}
    valence states:
      #              energy  rcut
      - 2s(1.00)    -2.874   1.058
      - 2p(0.00)    -1.126   1.058
      -  s          24.338   1.058

    # Using partial waves for Li as LCAO basis

Reference energy: -199.608796  # eV

Spin-paired calculation

Convergence criteria:
 Maximum [total energy] change in last 3 cyles: 0.0005 eV / electron
 Maximum integral of absolute [dens]ity change: 0.0001 electrons / valence electron
 Maximum integral of absolute [eigenst]ate change: 4e-08 eV^2 / valence electron
 Maximum number of scf [iter]ations: 333
 (Square brackets indicate name in SCF output, whereas a 'c' in
 the SCF output indicates the quantity has converged.)

Symmetries present (total): 48

[...]

  ( 0 -1  0)  ( 0 -1  0)  ( 0 -1  0)  ( 0 -1  0)  ( 0 -1  0)  ( 0 -1  0)
  ( 1  1  1)  ( 1  1  1)  ( 0  0 -1)  ( 0  0 -1)  (-1  0  0)  (-1  0  0)
  ( 0  0 -1)  (-1  0  0)  ( 1  1  1)  (-1  0  0)  ( 1  1  1)  ( 0  0 -1)

[...]

  (-1 -1 -1)  (-1 -1 -1)  (-1 -1 -1)  (-1 -1 -1)  (-1 -1 -1)  (-1 -1 -1)
  ( 1  0  0)  ( 1  0  0)  ( 0  1  0)  ( 0  1  0)  ( 0  0  1)  ( 0  0  1)
  ( 0  1  0)  ( 0  0  1)  ( 1  0  0)  ( 0  0  1)  ( 1  0  0)  ( 0  1  0)

512 k-points: 8 x 8 x 8 Monkhorst-Pack grid
26 k-points in the irreducible part of the Brillouin zone
       k-points in crystal coordinates                weights
   0:     0.06250000    0.06250000   -0.06250000          6/512
   1:     0.18750000   -0.06250000   -0.06250000          8/512
   2:     0.18750000    0.06250000   -0.06250000         24/512
   3:     0.18750000    0.18750000   -0.18750000          6/512
   4:     0.31250000   -0.06250000   -0.06250000         24/512
   5:     0.31250000    0.06250000   -0.18750000         24/512
   6:     0.31250000    0.06250000   -0.06250000         24/512
   7:     0.31250000    0.18750000   -0.18750000         24/512
   8:     0.31250000    0.31250000   -0.31250000          6/512
   9:     0.31250000    0.31250000    0.18750000         12/512
          ...
  25:     0.43750000    0.43750000    0.43750000          8/512

Wave functions: Plane wave expansion
  Cutoff energy: 500.000 eV
  Number of coefficients (min, max): 474, 492
  Pulay-stress correction: 0.000000 eV/Ang^3 (de/decut=0.000000)
  Using FFTW library
  ScaLapack parameters: grid=1x1, blocksize=None
  Wavefunction extrapolation:
    Improved wavefunction reuse through dual PAW basis

Occupation numbers: Fermi-Dirac:
  width: 0.1000  # eV

Eigensolver
   Davidson(niter=2)

Densities:
  Coarse grid: 16*16*16 grid
  Fine grid: 32*32*32 grid
  Total Charge: 0.000000

Density mixing:
  Method: separate
  Backend: pulay
  Linear mixing parameter: 0.05
  old densities: 5
  Damping of long wavelength oscillations: 50

Hamiltonian:
  XC and Coulomb potentials evaluated on a 32*32*32 grid
  Using the LDA Exchange-Correlation functional
  External potential:
    NoExternalPotential

Total number of cores used: 1

Number of atoms: 1
Number of atomic orbitals: 4
Number of bands in calculation: 10
Number of valence electrons: 1
Bands to converge: occupied

... initialized

Initializing position-dependent things.

Density initialized from atomic densities
Creating initial wave functions:
  4 bands from LCAO basis set
  6 bands from random numbers

       Li

Positions:
   0 Li     0.000000    0.000000    0.000000    ( 0.0000,  0.0000,  0.0000)

Unit cell:
           periodic     x           y           z      points  spacing
  1. axis:    yes   -1.680005    1.680005    1.680005    16     0.1485
  2. axis:    yes    1.680005   -1.680005    1.680005    16     0.1485
  3. axis:    yes    1.680005    1.680005   -1.680005    16     0.1485

  Lengths:   2.909854   2.909854   2.909854
  Angles:  109.471221 109.471221 109.471221

Effective grid spacing dv^(1/3) = 0.1667

     iter     time        total  log10-change:
                         energy  eigst   dens
iter:   1 11:12:06    -2.049436
iter:   2 11:12:07    -2.049768  -2.67  -1.18
iter:   3 11:12:07    -2.050466  -2.59  -1.20
iter:   4 11:12:08    -2.050463  -4.37  -1.83
iter:   5 11:12:09    -2.050450c -6.40  -3.28
iter:   6 11:12:09    -2.050448c -5.78  -2.86
iter:   7 11:12:10    -2.050448c -8.27c -4.43c

Converged after 7 iterations.

Dipole moment: (0.000000, -0.000000, 0.000000) |e|*Ang

Energy contributions relative to reference atoms: (reference = -199.608796)

Kinetic:         +2.472412
Potential:       -2.018645
External:        +0.000000
XC:              -2.491027
Entropy (-ST):   -0.007912
Local:           -0.009232
Free energy:     -2.054404
Extrapolated:    -2.050448

Showing only first 2 kpts
 Kpt  Band  Eigenvalues  Occupancy
  0     0     -3.04749    2.00000
  0     1     14.73710    0.00000

  1     0     -2.74887    2.00000
  1     1     13.47547    0.00000

Fermi level: 0.43949

No gap
Stress tensor:
    -0.000222     0.000000     0.000000
     0.000000    -0.000222    -0.000000
     0.000000    -0.000000    -0.000222
Timing:                              incl.     excl.
Hamiltonian:                         0.113     0.001   0.0% |
 Atomic:                             0.067     0.002   0.0% |
  XC Correction:                     0.065     0.065   0.4% |
 Calculate atomic Hamiltonians:      0.002     0.002   0.0% |
 Communicate:                        0.000     0.000   0.0% |
 Initialize Hamiltonian:             0.000     0.000   0.0% |
 Poisson:                            0.014     0.014   0.1% |
 XC 3D grid:                         0.029     0.029   0.2% |
LCAO initialization:                 1.719     0.113   0.8% |
 LCAO eigensolver:                   0.370     0.004   0.0% |
  Calculate projections:             0.002     0.002   0.0% |
  DenseAtomicCorrection:             0.009     0.009   0.1% |
  Distribute overlap matrix:         0.014     0.014   0.1% |
  Orbital Layouts:                   0.041     0.041   0.3% |
  Potential matrix:                  0.276     0.276   1.8% ||
  Sum over cells:                    0.024     0.024   0.2% |
 LCAO to grid:                       0.453     0.453   3.0% ||
 Set positions (LCAO WFS):           0.783     0.100   0.7% |
  Basic WFS set positions:           0.016     0.016   0.1% |
  Basis functions set positions:     0.000     0.000   0.0% |
  P tci:                             0.177     0.177   1.2% |
  ST tci:                            0.396     0.396   2.6% ||
  mktci:                             0.094     0.094   0.6% |
PWDescriptor:                        0.154     0.154   1.0% |
SCF-cycle:                           9.779     0.293   1.9% ||
 Davidson:                           8.168     1.811  12.0% |----|
  Apply H:                           0.969     0.893   5.9% |-|
   HMM T:                            0.077     0.077   0.5% |
  Subspace diag:                     1.498     0.073   0.5% |
   calc_h_matrix:                    1.173     0.168   1.1% |
    Apply H:                         1.004     0.900   6.0% |-|
     HMM T:                          0.104     0.104   0.7% |
   diagonalize:                      0.170     0.170   1.1% |
   rotate_psi:                       0.082     0.082   0.5% |
  calc. matrices:                    3.155     1.425   9.4% |---|
   Apply H:                          1.730     1.506  10.0% |---|
    HMM T:                           0.225     0.225   1.5% ||
  diagonalize:                       0.601     0.601   4.0% |-|
  rotate_psi:                        0.134     0.134   0.9% |
 Density:                            0.758     0.000   0.0% |
  Atomic density matrices:           0.035     0.035   0.2% |
  Mix:                               0.122     0.122   0.8% |
  Multipole moments:                 0.002     0.002   0.0% |
  Pseudo density:                    0.598     0.317   2.1% ||
   Symmetrize density:               0.281     0.281   1.9% ||
 Hamiltonian:                        0.497     0.034   0.2% |
  Atomic:                            0.320     0.010   0.1% |
   XC Correction:                    0.311     0.311   2.1% ||
  Calculate atomic Hamiltonians:     0.011     0.011   0.1% |
  Communicate:                       0.000     0.000   0.0% |
  Poisson:                           0.004     0.004   0.0% |
  XC 3D grid:                        0.128     0.128   0.8% |
 Orthonormalize:                     0.064     0.006   0.0% |
  calc_s_matrix:                     0.031     0.031   0.2% |
  inverse-cholesky:                  0.009     0.009   0.1% |
  projections:                       0.014     0.014   0.1% |
  rotate_psi_s:                      0.004     0.004   0.0% |
Set symmetry:                        0.285     0.285   1.9% ||
Stress:                              1.010     0.002   0.0% |
 Stress tensor:                      1.008     1.008   6.7% |--|
Other:                               2.018     2.018  13.4% |----|
Total:                                        15.079 100.0%