User:   dft22x019@n-62-30-5
Date:   Tue Aug 16 11:12:10 2022
Arch:   x86_64
Pid:    11111
CWD:    /zhome/fa/5/1000203270/CAMD2022/batteries
Python: 3.8.5
gpaw:   /zhome/fa/5/1000203270/CAMD2022/venv/gpaw/gpaw (4191706c58)
_gpaw:  /zhome/fa/5/1000203270/CAMD2022/venv/gpaw/
        _gpaw.cpython-38-x86_64-linux-gnu.so (88bf7688a8)
ase:    /zhome/fa/5/1000203270/CAMD2022/venv/ase/ase (version 3.23.0b1-bcce2b6c57)
numpy:  /zhome/fa/5/1000203270/CAMD2022/venv/lib/python3.8/site-packages/numpy (version 1.22.4)
scipy:  /zhome/fa/5/1000203270/CAMD2022/venv/lib/python3.8/site-packages/scipy (version 1.8.1)
units:  Angstrom and eV
cores: 1
OpenMP: False
OMP_NUM_THREADS: 1

Input parameters:
  kpts: [8 8 8]
  mode: {ecut: 500.0,
         name: pw}
  nbands: -10
  xc: PBE

System changes: positions, numbers, cell, pbc, initial_charges, initial_magmoms

Initialize ...

species:
  Li:
    name: Lithium
    id: 830b4218f175192f93f959cfc0aad614
    Z: 3.0
    valence: 1
    core: 2
    charge: 0.0
    file: /zhome/86/d/1666/PAW/gpaw-setups-0.9.20000/Li.PBE.gz
    compensation charges: {type: gauss,
                           rc: 0.33,
                           lmax: 2}
    cutoffs: {filter: 1.91,
              core: 2.55}
    valence states:
      #              energy  rcut
      - 2s(1.00)    -2.874   1.058
      - 2p(0.00)    -1.090   1.058
      -  s          24.337   1.058

    # Using partial waves for Li as LCAO basis

Reference energy: -202.787820  # eV

Spin-paired calculation

Convergence criteria:
 Maximum [total energy] change in last 3 cyles: 0.0005 eV / electron
 Maximum integral of absolute [dens]ity change: 0.0001 electrons / valence electron
 Maximum integral of absolute [eigenst]ate change: 4e-08 eV^2 / valence electron
 Maximum number of scf [iter]ations: 333
 (Square brackets indicate name in SCF output, whereas a 'c' in
 the SCF output indicates the quantity has converged.)

Symmetries present (total): 48

  ( 1  1  1)  ( 1  1  1)  ( 1  1  1)  ( 1  1  1)  ( 1  1  1)  ( 1  1  1)
  ( 0  0 -1)  ( 0  0 -1)  ( 0 -1  0)  ( 0 -1  0)  (-1  0  0)  (-1  0  0)
  ( 0 -1  0)  (-1  0  0)  ( 0  0 -1)  (-1  0  0)  ( 0  0 -1)  ( 0 -1  0)

[...]

  (-1  0  0)  (-1  0  0)  (-1  0  0)  (-1  0  0)  (-1  0  0)  (-1  0  0)
  ( 1  1  1)  ( 1  1  1)  ( 0  0 -1)  ( 0  0 -1)  ( 0 -1  0)  ( 0 -1  0)
  ( 0  0 -1)  ( 0 -1  0)  ( 1  1  1)  ( 0 -1  0)  ( 1  1  1)  ( 0  0 -1)

[...]

512 k-points: 8 x 8 x 8 Monkhorst-Pack grid
26 k-points in the irreducible part of the Brillouin zone
       k-points in crystal coordinates                weights
   0:     0.06250000    0.06250000   -0.06250000          6/512
   1:     0.18750000   -0.06250000   -0.06250000          8/512
   2:     0.18750000    0.06250000   -0.06250000         24/512
   3:     0.18750000    0.18750000   -0.18750000          6/512
   4:     0.31250000   -0.06250000   -0.06250000         24/512
   5:     0.31250000    0.06250000   -0.18750000         24/512
   6:     0.31250000    0.06250000   -0.06250000         24/512
   7:     0.31250000    0.18750000   -0.18750000         24/512
   8:     0.31250000    0.31250000   -0.31250000          6/512
   9:     0.31250000    0.31250000    0.18750000         12/512
          ...
  25:     0.43750000    0.43750000    0.43750000          8/512

Wave functions: Plane wave expansion
  Cutoff energy: 500.000 eV
  Number of coefficients (min, max): 446, 469
  Pulay-stress correction: 0.000000 eV/Ang^3 (de/decut=0.000000)
  Using FFTW library
  ScaLapack parameters: grid=1x1, blocksize=None
  Wavefunction extrapolation:
    Improved wavefunction reuse through dual PAW basis

Occupation numbers: Fermi-Dirac:
  width: 0.1000  # eV

Eigensolver
   Davidson(niter=2)

Densities:
  Coarse grid: 15*15*15 grid
  Fine grid: 30*30*30 grid
  Total Charge: 0.000000

Density mixing:
  Method: separate
  Backend: pulay
  Linear mixing parameter: 0.05
  old densities: 5
  Damping of long wavelength oscillations: 50

Hamiltonian:
  XC and Coulomb potentials evaluated on a 30*30*30 grid
  Using the PBE Exchange-Correlation functional
  External potential:
    NoExternalPotential

XC parameters: PBE with 2 nearest neighbor stencil

Total number of cores used: 1

Number of atoms: 1
Number of atomic orbitals: 4
Number of bands in calculation: 10
Number of valence electrons: 1
Bands to converge: occupied

... initialized

Initializing position-dependent things.

Density initialized from atomic densities
Creating initial wave functions:
  4 bands from LCAO basis set
  6 bands from random numbers

       Li

Positions:
   0 Li     0.000000    0.000000    0.000000    ( 0.0000,  0.0000,  0.0000)

Unit cell:
           periodic     x           y           z      points  spacing
  1. axis:    yes   -1.650000    1.650000    1.650000    15     0.1556
  2. axis:    yes    1.650000   -1.650000    1.650000    15     0.1556
  3. axis:    yes    1.650000    1.650000   -1.650000    15     0.1556

  Lengths:   2.857884   2.857884   2.857884
  Angles:  109.471221 109.471221 109.471221

Effective grid spacing dv^(1/3) = 0.1746

     iter     time        total  log10-change:
                         energy  eigst   dens
iter:   1 11:12:12    -1.926637
iter:   2 11:12:13    -1.923500  -2.56  -1.18
iter:   3 11:12:13    -1.905270  -2.56  -1.20
iter:   4 11:12:14    -1.905183  -5.38  -2.73
iter:   5 11:12:15    -1.905052c -3.82  -2.63
iter:   6 11:12:15    -1.904985c -6.30  -1.95
iter:   7 11:12:16    -1.904985c -8.52c -3.54
iter:   8 11:12:16    -1.904985c -8.51c -3.54
iter:   9 11:12:17    -1.904985c -9.16c -4.23c

Converged after 9 iterations.

Dipole moment: (0.000000, -0.000000, 0.000000) |e|*Ang

Energy contributions relative to reference atoms: (reference = -202.787820)

Kinetic:         +2.697636
Potential:       -2.149091
External:        +0.000000
XC:              -2.440038
Entropy (-ST):   -0.007423
Local:           -0.009780
Free energy:     -1.908697
Extrapolated:    -1.904985

Showing only first 2 kpts
 Kpt  Band  Eigenvalues  Occupancy
  0     0     -2.90429    2.00000
  0     1     15.83969    0.00000

  1     0     -2.59553    2.00000
  1     1     14.49144    0.00000

Fermi level: 0.70337

No gap
Stress tensor:
    -0.012354    -0.000000    -0.000000
    -0.000000    -0.012354     0.000000
    -0.000000     0.000000    -0.012354
System changes: cell

[...]

     iter     time        total  log10-change:
                         energy  eigst   dens
iter:   1 11:12:25    -1.931763
iter:   2 11:12:26    -1.929899  -2.61  -1.22
iter:   3 11:12:26    -1.917082  -3.02  -1.24
iter:   4 11:12:27    -1.917016  -6.10  -2.77
iter:   5 11:12:28    -1.916887c -4.04  -2.67
iter:   6 11:12:28    -1.916862c -6.70  -2.41
iter:   7 11:12:29    -1.916862c -7.85c -3.81
iter:   8 11:12:30    -1.916862c -8.92c -3.67
iter:   9 11:12:31    -1.916862c -10.43c -4.94c

[...]

No gap
Stress tensor:
    -0.000862     0.000000    -0.000000
     0.000000    -0.000862     0.000000
    -0.000000     0.000000    -0.000862
System changes: cell

Initialize ...

species:
  Li:
    name: Lithium
    id: 830b4218f175192f93f959cfc0aad614
    Z: 3.0
    valence: 1
    core: 2
    charge: 0.0
    file: /zhome/86/d/1666/PAW/gpaw-setups-0.9.20000/Li.PBE.gz
    compensation charges: {type: gauss,
                           rc: 0.33,
                           lmax: 2}
    cutoffs: {filter: 1.91,
              core: 2.55}
    valence states:
      #              energy  rcut
      - 2s(1.00)    -2.874   1.058
      - 2p(0.00)    -1.090   1.058
      -  s          24.337   1.058

    # Using partial waves for Li as LCAO basis

Reference energy: -202.787820  # eV

Spin-paired calculation

Convergence criteria:
 Maximum [total energy] change in last 3 cyles: 0.0005 eV / electron
 Maximum integral of absolute [dens]ity change: 0.0001 electrons / valence electron
 Maximum integral of absolute [eigenst]ate change: 4e-08 eV^2 / valence electron
 Maximum number of scf [iter]ations: 333
 (Square brackets indicate name in SCF output, whereas a 'c' in
 the SCF output indicates the quantity has converged.)

Symmetries present (total): 48

[...]

  ( 0 -1  0)  ( 0 -1  0)  ( 0 -1  0)  ( 0 -1  0)  ( 0 -1  0)  ( 0 -1  0)
  ( 1  1  1)  ( 1  1  1)  ( 0  0 -1)  ( 0  0 -1)  (-1  0  0)  (-1  0  0)
  ( 0  0 -1)  (-1  0  0)  ( 1  1  1)  (-1  0  0)  ( 1  1  1)  ( 0  0 -1)

[...]

  (-1 -1 -1)  (-1 -1 -1)  (-1 -1 -1)  (-1 -1 -1)  (-1 -1 -1)  (-1 -1 -1)
  ( 1  0  0)  ( 1  0  0)  ( 0  1  0)  ( 0  1  0)  ( 0  0  1)  ( 0  0  1)
  ( 0  1  0)  ( 0  0  1)  ( 1  0  0)  ( 0  0  1)  ( 1  0  0)  ( 0  1  0)

512 k-points: 8 x 8 x 8 Monkhorst-Pack grid
26 k-points in the irreducible part of the Brillouin zone
       k-points in crystal coordinates                weights
   0:     0.06250000    0.06250000   -0.06250000          6/512
   1:     0.18750000   -0.06250000   -0.06250000          8/512
   2:     0.18750000    0.06250000   -0.06250000         24/512
   3:     0.18750000    0.18750000   -0.18750000          6/512
   4:     0.31250000   -0.06250000   -0.06250000         24/512
   5:     0.31250000    0.06250000   -0.18750000         24/512
   6:     0.31250000    0.06250000   -0.06250000         24/512
   7:     0.31250000    0.18750000   -0.18750000         24/512
   8:     0.31250000    0.31250000   -0.31250000          6/512
   9:     0.31250000    0.31250000    0.18750000         12/512
          ...
  25:     0.43750000    0.43750000    0.43750000          8/512

Wave functions: Plane wave expansion
  Cutoff energy: 500.000 eV
  Number of coefficients (min, max): 490, 523
  Pulay-stress correction: 0.000000 eV/Ang^3 (de/decut=0.000000)
  Using FFTW library
  ScaLapack parameters: grid=1x1, blocksize=None
  Wavefunction extrapolation:
    Improved wavefunction reuse through dual PAW basis

Occupation numbers: Fermi-Dirac:
  width: 0.1000  # eV

Eigensolver
   Davidson(niter=2)

Densities:
  Coarse grid: 16*16*16 grid
  Fine grid: 32*32*32 grid
  Total Charge: 0.000000

Density mixing:
  Method: separate
  Backend: pulay
  Linear mixing parameter: 0.05
  old densities: 5
  Damping of long wavelength oscillations: 50

Hamiltonian:
  XC and Coulomb potentials evaluated on a 32*32*32 grid
  Using the PBE Exchange-Correlation functional
  External potential:
    NoExternalPotential

XC parameters: PBE with 2 nearest neighbor stencil

Total number of cores used: 1

Number of atoms: 1
Number of atomic orbitals: 4
Number of bands in calculation: 10
Number of valence electrons: 1
Bands to converge: occupied

... initialized

Initializing position-dependent things.

Density initialized from atomic densities
Creating initial wave functions:
  4 bands from LCAO basis set
  6 bands from random numbers

       Li

Positions:
   0 Li     0.000000    0.000000    0.000000    ( 0.0000,  0.0000,  0.0000)

Unit cell:
           periodic     x           y           z      points  spacing
  1. axis:    yes   -1.713768    1.713768    1.713768    16     0.1515
  2. axis:    yes    1.713768   -1.713768    1.713768    16     0.1515
  3. axis:    yes    1.713768    1.713768   -1.713768    16     0.1515

  Lengths:   2.968333   2.968333   2.968333
  Angles:  109.471221 109.471221 109.471221

Effective grid spacing dv^(1/3) = 0.1700

     iter     time        total  log10-change:
                         energy  eigst   dens
iter:   1 11:12:34    -1.931260
iter:   2 11:12:35    -1.929531  -2.53  -1.23
iter:   3 11:12:35    -1.917001  -3.20  -1.24
iter:   4 11:12:36    -1.917059  -4.64  -2.44
iter:   5 11:12:37    -1.916916c -4.52  -2.68
iter:   6 11:12:38    -1.916905c -5.14  -2.90
iter:   7 11:12:38    -1.916904c -6.94  -4.15c
iter:   8 11:12:39    -1.916905c -8.04c -3.63
iter:   9 11:12:40    -1.916905c -9.55c -4.59c

Converged after 9 iterations.

Dipole moment: (0.000000, -0.000000, -0.000000) |e|*Ang

Energy contributions relative to reference atoms: (reference = -202.787820)

Kinetic:         +1.934216
Potential:       -1.649363
External:        +0.000000
XC:              -2.189462
Entropy (-ST):   -0.008401
Local:           -0.008095
Free energy:     -1.921105
Extrapolated:    -1.916905

Showing only first 2 kpts
 Kpt  Band  Eigenvalues  Occupancy
  0     0     -3.07181    2.00000
  0     1     14.34900    0.00000

  1     0     -2.77445    2.00000
  1     1     13.07402    0.00000

Fermi level: 0.40466

No gap
Stress tensor:
    -0.000073     0.000000     0.000000
     0.000000    -0.000073    -0.000000
     0.000000    -0.000000    -0.000073
Timing:                              incl.     excl.
Hamiltonian:                         0.336     0.001   0.0% |
 Atomic:                             0.208     0.002   0.0% |
  XC Correction:                     0.206     0.206   0.7% |
 Calculate atomic Hamiltonians:      0.003     0.003   0.0% |
 Communicate:                        0.000     0.000   0.0% |
 Initialize Hamiltonian:             0.000     0.000   0.0% |
 Poisson:                            0.001     0.001   0.0% |
 XC 3D grid:                         0.122     0.122   0.4% |
LCAO initialization:                 2.337     0.135   0.4% |
 LCAO eigensolver:                   0.562     0.004   0.0% |
  Calculate projections:             0.002     0.002   0.0% |
  DenseAtomicCorrection:             0.009     0.009   0.0% |
  Distribute overlap matrix:         0.002     0.002   0.0% |
  Orbital Layouts:                   0.026     0.026   0.1% |
  Potential matrix:                  0.444     0.444   1.5% ||
  Sum over cells:                    0.076     0.076   0.3% |
 LCAO to grid:                       0.526     0.526   1.7% ||
 Set positions (LCAO WFS):           1.114     0.133   0.4% |
  Basic WFS set positions:           0.016     0.016   0.1% |
  Basis functions set positions:     0.000     0.000   0.0% |
  P tci:                             0.256     0.256   0.8% |
  ST tci:                            0.543     0.543   1.8% ||
  mktci:                             0.165     0.165   0.5% |
PWDescriptor:                        0.031     0.031   0.1% |
SCF-cycle:                          22.799     0.655   2.2% ||
 Davidson:                          17.364     4.010  13.3% |----|
  Apply H:                           1.814     1.569   5.2% |-|
   HMM T:                            0.244     0.244   0.8% |
  Subspace diag:                     3.262     0.157   0.5% |
   calc_h_matrix:                    2.592     0.517   1.7% ||
    Apply H:                         2.075     1.810   6.0% |-|
     HMM T:                          0.265     0.265   0.9% |
   diagonalize:                      0.305     0.305   1.0% |
   rotate_psi:                       0.209     0.209   0.7% |
  calc. matrices:                    6.914     2.890   9.6% |---|
   Apply H:                          4.024     3.575  11.8% |----|
    HMM T:                           0.448     0.448   1.5% ||
  diagonalize:                       0.974     0.974   3.2% ||
  rotate_psi:                        0.390     0.390   1.3% ||
 Density:                            1.621     0.001   0.0% |
  Atomic density matrices:           0.079     0.079   0.3% |
  Mix:                               0.113     0.113   0.4% |
  Multipole moments:                 0.020     0.020   0.1% |
  Pseudo density:                    1.408     0.669   2.2% ||
   Symmetrize density:               0.739     0.739   2.4% ||
 Hamiltonian:                        3.009     0.030   0.1% |
  Atomic:                            1.881     0.020   0.1% |
   XC Correction:                    1.862     1.862   6.2% |-|
  Calculate atomic Hamiltonians:     0.030     0.030   0.1% |
  Communicate:                       0.000     0.000   0.0% |
  Poisson:                           0.006     0.006   0.0% |
  XC 3D grid:                        1.061     1.061   3.5% ||
 Orthonormalize:                     0.149     0.029   0.1% |
  calc_s_matrix:                     0.022     0.022   0.1% |
  inverse-cholesky:                  0.017     0.017   0.1% |
  projections:                       0.077     0.077   0.3% |
  rotate_psi_s:                      0.005     0.005   0.0% |
Set symmetry:                        0.575     0.575   1.9% ||
Stress:                              1.605     0.000   0.0% |
 Stress tensor:                      1.605     1.605   5.3% |-|
Other:                               2.512     2.512   8.3% |--|
Total:                                        30.195 100.0%